20
113
20
83
86
13
91
42
15
62
24
28
20
51
17
79
55
20
38
20
86
69
89
0 1
0 2
0 3
0 4
0 5
0 7
0 8
0 12
0 13
0 14
0 16
0 17
0 19
1 7
1 9
1 11
1 14
1 18
2 3
2 4
2 6
2 7
2 8
2 9
2 10
2 11
2 13
2 14
2 17
2 19
3 4
3 7
3 8
3 9
3 11
3 12
3 13
3 14
3 17
3 18
3 19
4 6
4 7
4 10
4 11
4 12
4 13
4 19
5 7
5 8
5 9
5 10
5 11
5 12
5 13
5 14
5 15
5 16
5 17
6 9
6 11
6 12
6 13
6 15
6 18
7 11
7 12
7 13
7 14
7 15
7 16
7 17
7 18
8 10
8 12
8 13
8 14
8 16
8 17
8 19
9 10
9 15
9 17
9 18
10 11
10 12
10 14
10 15
10 16
10 17
10 18
11 12
11 16
11 17
11 18
12 13
12 14
12 16
12 17
12 19
13 14
13 15
13 17
13 18
13 19
14 15
14 18
14 19
15 17
15 19
16 18
17 19
18 19
8
19
1
18
4
2
12
7
11
3
15
5
10
13
6
9
17
0
16
14
